c FILE /home/rafael/Documents/HappySet/MIHS/inputs/happygen/output/graph_d_regular_k3_p0.3_v100_20241127_084013.txt
c SOURCE This is a d-regular graph formed for the happy graph colouring problem.
c DESCRIPTION It was generated using the problem generator of Rhyd Lewis
c
c GRAPH STATS
c Seed                             = -350982418
c Number of Nodes                  = 100
c Number of colours k              = 3
c Number of pre-assignments        = 30
c Degree of all vertices           = 6
c Density                          = 0.0606061
c 
c The degrees of nodes 1 to 100, respectively, are as follows 
c [6, 6, 6, 6, 6, 6, 6, 6, 6, 6, 6, 6, 6, 6, 6, 6, 6, 6, 6, 6, 6, 6, 6, 6, 6, 6, 
c  6, 6, 6, 6, 6, 6, 6, 6, 6, 6, 6, 6, 6, 6, 6, 6, 6, 6, 6, 6, 6, 6, 6, 6, 6, 
c  6, 6, 6, 6, 6, 6, 6, 6, 6, 6, 6, 6, 6, 6, 6, 6, 6, 6, 6, 6, 6, 6, 6, 6, 6, 
c  6, 6, 6, 6, 6, 6, 6, 6, 6, 6, 6, 6, 6, 6, 6, 6, 6, 6, 6, 6, 6, 6, 6, 6] 
c  
p edge 100 300 3
e 1 40
e 1 43
e 1 59
e 1 82
e 1 85
e 1 94
e 2 16
e 2 35
e 2 65
e 2 69
e 2 76
e 2 94
e 3 18
e 3 30
e 3 48
e 3 58
e 3 59
e 3 78
e 4 10
e 4 30
e 4 37
e 4 48
e 4 79
e 4 90
e 5 8
e 5 9
e 5 19
e 5 41
e 5 65
e 5 73
e 6 13
e 6 22
e 6 71
e 6 79
e 6 80
e 6 93
e 7 17
e 7 46
e 7 61
e 7 63
e 7 74
e 7 82
e 8 48
e 8 65
e 8 69
e 8 78
e 8 93
e 9 39
e 9 44
e 9 74
e 9 95
e 9 100
e 10 11
e 10 46
e 10 49
e 10 89
e 10 94
e 11 22
e 11 44
e 11 53
e 11 83
e 11 89
e 12 27
e 12 28
e 12 54
e 12 57
e 12 77
e 12 100
e 13 38
e 13 41
e 13 57
e 13 62
e 13 70
e 14 23
e 14 38
e 14 49
e 14 85
e 14 86
e 14 98
e 15 26
e 15 46
e 15 47
e 15 73
e 15 80
e 15 99
e 16 25
e 16 31
e 16 67
e 16 71
e 16 90
e 17 28
e 17 45
e 17 75
e 17 81
e 17 92
e 18 29
e 18 50
e 18 66
e 18 92
e 18 95
e 19 52
e 19 62
e 19 65
e 19 90
e 19 99
e 20 28
e 20 71
e 20 74
e 20 85
e 20 88
e 20 96
e 21 36
e 21 66
e 21 81
e 21 91
e 21 93
e 21 96
e 22 40
e 22 64
e 22 73
e 22 87
e 23 33
e 23 34
e 23 51
e 23 86
e 23 92
e 24 29
e 24 49
e 24 53
e 24 64
e 24 70
e 24 96
e 25 34
e 25 36
e 25 40
e 25 63
e 25 84
e 26 65
e 26 67
e 26 75
e 26 93
e 26 95
e 27 32
e 27 58
e 27 59
e 27 72
e 27 82
e 28 43
e 28 57
e 28 76
e 29 31
e 29 42
e 29 84
e 29 87
e 30 39
e 30 47
e 30 48
e 30 53
e 31 45
e 31 49
e 31 66
e 31 97
e 32 59
e 32 63
e 32 71
e 32 75
e 32 97
e 33 43
e 33 58
e 33 69
e 33 78
e 33 81
e 34 66
e 34 69
e 34 81
e 34 97
e 35 73
e 35 75
e 35 83
e 35 89
e 35 94
e 36 42
e 36 46
e 36 57
e 36 97
e 37 44
e 37 50
e 37 55
e 37 56
e 37 84
e 38 41
e 38 62
e 38 64
e 38 95
e 39 48
e 39 68
e 39 80
e 39 82
e 40 51
e 40 61
e 40 88
e 41 45
e 41 59
e 41 74
e 42 50
e 42 54
e 42 76
e 42 81
e 43 53
e 43 62
e 43 72
e 44 60
e 44 92
e 44 98
e 45 51
e 45 60
e 45 98
e 46 89
e 46 99
e 47 54
e 47 76
e 47 86
e 47 93
e 48 100
e 49 94
e 49 100
e 50 63
e 50 77
e 50 100
e 51 89
e 51 95
e 51 97
e 52 57
e 52 63
e 52 70
e 52 84
e 52 92
e 53 70
e 53 78
e 54 72
e 54 78
e 54 95
e 55 60
e 55 67
e 55 87
e 55 89
e 55 96
e 56 67
e 56 80
e 56 85
e 56 87
e 56 88
e 57 62
e 58 60
e 58 66
e 58 68
e 59 61
e 60 87
e 60 99
e 61 67
e 61 70
e 61 88
e 62 65
e 63 77
e 64 72
e 64 83
e 64 88
e 66 86
e 67 74
e 68 84
e 68 85
e 68 86
e 68 96
e 69 87
e 69 99
e 70 71
e 71 76
e 72 73
e 72 78
e 73 77
e 74 88
e 75 91
e 75 92
e 76 79
e 77 82
e 77 85
e 79 83
e 79 91
e 79 98
e 80 84
e 80 98
e 81 82
e 83 86
e 83 100
e 90 91
e 90 93
e 90 97
e 91 96
e 91 99
e 94 98
n 1 3
n 4 3
n 8 2
n 9 3
n 18 2
n 22 2
n 26 3
n 27 1
n 28 3
n 29 2
n 30 3
n 34 1
n 37 3
n 43 3
n 46 1
n 49 2
n 60 2
n 63 3
n 67 3
n 71 1
n 77 3
n 78 2
n 80 1
n 81 1
n 83 1
n 85 3
n 88 2
n 89 1
n 97 1
n 98 1
